c Standarized MaxSat Instance
c{
c "sha1sum": "5a6a8342eb2581c07ff35af87d69fdf8effbd0f1",
c "nvars": 140,
c "ncls": 1258,
c "nhards": 0,
c "nhard_len_stats":
c    { "min": 0, "max": 0, "ave": 0.00,
c      "stddev": 0.00 },
c "nsofts": 1258,
c "nsoft_len_stats":
c    { "min": 2, "max": 2, "ave": 2.00,
c      "stddev": 0.00 },
c "nsoft_wts": 1,
c "soft_wt_stats":
c    { "min": 1, "max": 1, "ave": 1.00,
c      "stddev": 0.00 }
c}
c------------------------------------------------------------
c strEdges: 125  randomEdges: 504 
c degrees:  1  2 
c girth: Inf max: -43.604516  
c Hgirth mixed MAXCUT instance
c generated from an undirected graph
c to solve unweighted MaxCut
p wcnf 140 1258 1259
1 140 136 0
1 -140 -136 0
1 140 43 0
1 -140 -43 0
1 70 97 0
1 -70 -97 0
1 70 120 0
1 -70 -120 0
1 121 99 0
1 -121 -99 0
1 121 130 0
1 -121 -130 0
1 100 40 0
1 -100 -40 0
1 100 111 0
1 -100 -111 0
1 55 114 0
1 -55 -114 0
1 55 15 0
1 -55 -15 0
1 138 74 0
1 -138 -74 0
1 138 67 0
1 -138 -67 0
1 7 139 0
1 -7 -139 0
1 7 98 0
1 -7 -98 0
1 52 15 0
1 -52 -15 0
1 52 108 0
1 -52 -108 0
1 19 48 0
1 -19 -48 0
1 19 11 0
1 -19 -11 0
1 16 37 0
1 -16 -37 0
1 16 112 0
1 -16 -112 0
1 75 53 0
1 -75 -53 0
1 125 76 0
1 -125 -76 0
1 125 88 0
1 -125 -88 0
1 63 83 0
1 -63 -83 0
1 63 101 0
1 -63 -101 0
1 18 107 0
1 -18 -107 0
1 18 34 0
1 -18 -34 0
1 31 93 0
1 -31 -93 0
1 31 25 0
1 -31 -25 0
1 65 124 0
1 -65 -124 0
1 65 92 0
1 -65 -92 0
1 68 116 0
1 -68 -116 0
1 68 109 0
1 -68 -109 0
1 21 71 0
1 -21 -71 0
1 21 80 0
1 -21 -80 0
1 10 2 0
1 -10 -2 0
1 10 95 0
1 -10 -95 0
1 72 25 0
1 -72 -25 0
1 72 114 0
1 -72 -114 0
1 12 51 0
1 -12 -51 0
1 12 83 0
1 -12 -83 0
1 45 105 0
1 -45 -105 0
1 36 135 0
1 -36 -135 0
1 36 38 0
1 -36 -38 0
1 103 88 0
1 -103 -88 0
1 103 37 0
1 -103 -37 0
1 94 78 0
1 -94 -78 0
1 94 46 0
1 -94 -46 0
1 6 108 0
1 -6 -108 0
1 6 2 0
1 -6 -2 0
1 35 137 0
1 -35 -137 0
1 35 74 0
1 -35 -74 0
1 77 132 0
1 -77 -132 0
1 77 99 0
1 -77 -99 0
1 110 109 0
1 -110 -109 0
1 110 115 0
1 -110 -115 0
1 56 119 0
1 -56 -119 0
1 56 3 0
1 -56 -3 0
1 41 80 0
1 -41 -80 0
1 106 1 0
1 -106 -1 0
1 129 89 0
1 -129 -89 0
1 134 23 0
1 -134 -23 0
1 134 116 0
1 -134 -116 0
1 49 117 0
1 -49 -117 0
1 49 93 0
1 -49 -93 0
1 58 8 0
1 -58 -8 0
1 58 60 0
1 -58 -60 0
1 64 79 0
1 -64 -79 0
1 42 69 0
1 -42 -69 0
1 42 39 0
1 -42 -39 0
1 126 5 0
1 -126 -5 0
1 17 13 0
1 -17 -13 0
1 17 71 0
1 -17 -71 0
1 113 39 0
1 -113 -39 0
1 113 51 0
1 -113 -51 0
1 47 118 0
1 -47 -118 0
1 47 105 0
1 -47 -105 0
1 33 101 0
1 -33 -101 0
1 33 118 0
1 -33 -118 0
1 9 38 0
1 -9 -38 0
1 9 122 0
1 -9 -122 0
1 26 122 0
1 -26 -122 0
1 26 132 0
1 -26 -132 0
1 81 120 0
1 -81 -120 0
1 20 59 0
1 -20 -59 0
1 96 14 0
1 -96 -14 0
1 86 130 0
1 -86 -130 0
1 86 48 0
1 -86 -48 0
1 44 24 0
1 -44 -24 0
1 44 85 0
1 -44 -85 0
1 54 27 0
1 -54 -27 0
1 54 89 0
1 -54 -89 0
1 84 91 0
1 -84 -91 0
1 84 139 0
1 -84 -139 0
1 32 66 0
1 -32 -66 0
1 32 69 0
1 -32 -69 0
1 87 50 0
1 -87 -50 0
1 87 27 0
1 -87 -27 0
1 30 82 0
1 -30 -82 0
1 30 53 0
1 -30 -53 0
1 62 46 0
1 -62 -46 0
1 62 5 0
1 -62 -5 0
1 127 92 0
1 -127 -92 0
1 127 24 0
1 -127 -24 0
1 128 43 0
1 -128 -43 0
1 128 50 0
1 -128 -50 0
1 133 98 0
1 -133 -98 0
1 133 14 0
1 -133 -14 0
1 28 34 0
1 -28 -34 0
1 28 136 0
1 -28 -136 0
1 123 95 0
1 -123 -95 0
1 123 97 0
1 -123 -97 0
1 22 11 0
1 -22 -11 0
1 4 73 0
1 -4 -73 0
1 4 66 0
1 -4 -66 0
1 131 60 0
1 -131 -60 0
1 131 1 0
1 -131 -1 0
1 61 67 0
1 -61 -67 0
1 90 112 0
1 -90 -112 0
1 102 115 0
1 -102 -115 0
1 102 124 0
1 -102 -124 0
1 104 85 0
1 -104 -85 0
1 57 3 0
1 -57 -3 0
1 29 111 0
1 -29 -111 0
1 29 107 0
1 -29 -107 0
1 98 112 0
1 -98 -112 0
1 135 132 0
1 -135 -132 0
1 18 50 0
1 -18 -50 0
1 64 32 0
1 -64 -32 0
1 47 101 0
1 -47 -101 0
1 65 73 0
1 -65 -73 0
1 125 132 0
1 -125 -132 0
1 58 116 0
1 -58 -116 0
1 2 117 0
1 -2 -117 0
1 82 34 0
1 -82 -34 0
1 47 44 0
1 -47 -44 0
1 26 131 0
1 -26 -131 0
1 116 67 0
1 -116 -67 0
1 125 35 0
1 -125 -35 0
1 121 123 0
1 -121 -123 0
1 100 59 0
1 -100 -59 0
1 108 91 0
1 -108 -91 0
1 61 40 0
1 -61 -40 0
1 26 118 0
1 -26 -118 0
1 97 27 0
1 -97 -27 0
1 42 83 0
1 -42 -83 0
1 31 97 0
1 -31 -97 0
1 132 8 0
1 -132 -8 0
1 105 34 0
1 -105 -34 0
1 75 67 0
1 -75 -67 0
1 139 98 0
1 -139 -98 0
1 51 38 0
1 -51 -38 0
1 50 67 0
1 -50 -67 0
1 61 114 0
1 -61 -114 0
1 97 117 0
1 -97 -117 0
1 18 53 0
1 -18 -53 0
1 10 116 0
1 -10 -116 0
1 58 96 0
1 -58 -96 0
1 125 101 0
1 -125 -101 0
1 114 71 0
1 -114 -71 0
1 107 130 0
1 -107 -130 0
1 96 97 0
1 -96 -97 0
1 62 71 0
1 -62 -71 0
1 25 130 0
1 -25 -130 0
1 52 48 0
1 -52 -48 0
1 127 50 0
1 -127 -50 0
1 53 69 0
1 -53 -69 0
1 84 93 0
1 -84 -93 0
1 2 13 0
1 -2 -13 0
1 61 15 0
1 -61 -15 0
1 107 124 0
1 -107 -124 0
1 31 120 0
1 -31 -120 0
1 9 67 0
1 -9 -67 0
1 84 62 0
1 -84 -62 0
1 94 139 0
1 -94 -139 0
1 121 47 0
1 -121 -47 0
1 36 111 0
1 -36 -111 0
1 86 84 0
1 -86 -84 0
1 63 30 0
1 -63 -30 0
1 106 137 0
1 -106 -137 0
1 25 109 0
1 -25 -109 0
1 21 53 0
1 -21 -53 0
1 135 137 0
1 -135 -137 0
1 86 127 0
1 -86 -127 0
1 21 35 0
1 -21 -35 0
1 54 97 0
1 -54 -97 0
1 17 61 0
1 -17 -61 0
1 54 59 0
1 -54 -59 0
1 81 88 0
1 -81 -88 0
1 58 102 0
1 -58 -102 0
1 121 120 0
1 -121 -120 0
1 14 111 0
1 -14 -111 0
1 65 23 0
1 -65 -23 0
1 97 37 0
1 -97 -37 0
1 42 46 0
1 -42 -46 0
1 68 94 0
1 -68 -94 0
1 62 74 0
1 -62 -74 0
1 7 114 0
1 -7 -114 0
1 83 122 0
1 -83 -122 0
1 20 130 0
1 -20 -130 0
1 55 45 0
1 -55 -45 0
1 32 128 0
1 -32 -128 0
1 113 81 0
1 -113 -81 0
1 47 8 0
1 -47 -8 0
1 110 48 0
1 -110 -48 0
1 96 37 0
1 -96 -37 0
1 68 61 0
1 -68 -61 0
1 87 8 0
1 -87 -8 0
1 54 128 0
1 -54 -128 0
1 100 13 0
1 -100 -13 0
1 49 116 0
1 -49 -116 0
1 53 66 0
1 -53 -66 0
1 12 110 0
1 -12 -110 0
1 26 78 0
1 -26 -78 0
1 116 69 0
1 -116 -69 0
1 31 24 0
1 -31 -24 0
1 117 3 0
1 -117 -3 0
1 2 1 0
1 -2 -1 0
1 41 109 0
1 -41 -109 0
1 17 53 0
1 -17 -53 0
1 121 19 0
1 -121 -19 0
1 77 123 0
1 -77 -123 0
1 96 79 0
1 -96 -79 0
1 10 4 0
1 -10 -4 0
1 44 2 0
1 -44 -2 0
1 125 32 0
1 -125 -32 0
1 103 53 0
1 -103 -53 0
1 18 47 0
1 -18 -47 0
1 118 38 0
1 -118 -38 0
1 98 115 0
1 -98 -115 0
1 94 130 0
1 -94 -130 0
1 51 117 0
1 -51 -117 0
1 37 71 0
1 -37 -71 0
1 7 39 0
1 -7 -39 0
1 48 112 0
1 -48 -112 0
1 52 16 0
1 -52 -16 0
1 29 79 0
1 -29 -79 0
1 57 137 0
1 -57 -137 0
1 125 12 0
1 -125 -12 0
1 33 84 0
1 -33 -84 0
1 84 48 0
1 -84 -48 0
1 19 50 0
1 -19 -50 0
1 106 114 0
1 -106 -114 0
1 88 109 0
1 -88 -109 0
1 26 44 0
1 -26 -44 0
1 53 122 0
1 -53 -122 0
1 41 64 0
1 -41 -64 0
1 140 26 0
1 -140 -26 0
1 117 59 0
1 -117 -59 0
1 107 60 0
1 -107 -60 0
1 58 83 0
1 -58 -83 0
1 106 119 0
1 -106 -119 0
1 61 38 0
1 -61 -38 0
1 77 37 0
1 -77 -37 0
1 18 106 0
1 -18 -106 0
1 121 87 0
1 -121 -87 0
1 72 120 0
1 -72 -120 0
1 23 50 0
1 -23 -50 0
1 100 7 0
1 -100 -7 0
1 81 59 0
1 -81 -59 0
1 39 95 0
1 -39 -95 0
1 89 130 0
1 -89 -130 0
1 127 11 0
1 -127 -11 0
1 32 102 0
1 -32 -102 0
1 72 97 0
1 -72 -97 0
1 42 113 0
1 -42 -113 0
1 16 97 0
1 -16 -97 0
1 126 123 0
1 -126 -123 0
1 88 80 0
1 -88 -80 0
1 22 137 0
1 -22 -137 0
1 136 119 0
1 -136 -119 0
1 2 23 0
1 -2 -23 0
1 129 74 0
1 -129 -74 0
1 7 109 0
1 -7 -109 0
1 138 4 0
1 -138 -4 0
1 6 44 0
1 -6 -44 0
1 140 132 0
1 -140 -132 0
1 134 20 0
1 -134 -20 0
1 102 38 0
1 -102 -38 0
1 127 43 0
1 -127 -43 0
1 21 87 0
1 -21 -87 0
1 87 67 0
1 -87 -67 0
1 30 92 0
1 -30 -92 0
1 12 58 0
1 -12 -58 0
1 35 132 0
1 -35 -132 0
1 103 123 0
1 -103 -123 0
1 60 67 0
1 -60 -67 0
1 87 119 0
1 -87 -119 0
1 102 93 0
1 -102 -93 0
1 42 2 0
1 -42 -2 0
1 117 92 0
1 -117 -92 0
1 45 53 0
1 -45 -53 0
1 81 108 0
1 -81 -108 0
1 108 132 0
1 -108 -132 0
1 75 38 0
1 -75 -38 0
1 19 13 0
1 -19 -13 0
1 55 90 0
1 -55 -90 0
1 32 71 0
1 -32 -71 0
1 110 106 0
1 -110 -106 0
1 94 2 0
1 -94 -2 0
1 49 86 0
1 -49 -86 0
1 94 3 0
1 -94 -3 0
1 125 109 0
1 -125 -109 0
1 136 69 0
1 -136 -69 0
1 123 108 0
1 -123 -108 0
1 19 116 0
1 -19 -116 0
1 97 137 0
1 -97 -137 0
1 56 127 0
1 -56 -127 0
1 30 66 0
1 -30 -66 0
1 121 85 0
1 -121 -85 0
1 140 91 0
1 -140 -91 0
1 5 50 0
1 -5 -50 0
1 140 50 0
1 -140 -50 0
1 138 68 0
1 -138 -68 0
1 90 2 0
1 -90 -2 0
1 21 132 0
1 -21 -132 0
1 55 14 0
1 -55 -14 0
1 140 129 0
1 -140 -129 0
1 121 2 0
1 -121 -2 0
1 43 60 0
1 -43 -60 0
1 28 48 0
1 -28 -48 0
1 70 63 0
1 -70 -63 0
1 55 129 0
1 -55 -129 0
1 63 3 0
1 -63 -3 0
1 21 127 0
1 -21 -127 0
1 9 132 0
1 -9 -132 0
1 131 34 0
1 -131 -34 0
1 10 59 0
1 -10 -59 0
1 53 2 0
1 -53 -2 0
1 135 39 0
1 -135 -39 0
1 107 67 0
1 -107 -67 0
1 47 98 0
1 -47 -98 0
1 134 86 0
1 -134 -86 0
1 140 72 0
1 -140 -72 0
1 106 115 0
1 -106 -115 0
1 52 102 0
1 -52 -102 0
1 47 78 0
1 -47 -78 0
1 138 122 0
1 -138 -122 0
1 7 34 0
1 -7 -34 0
1 51 115 0
1 -51 -115 0
1 37 24 0
1 -37 -24 0
1 44 139 0
1 -44 -139 0
1 63 139 0
1 -63 -139 0
1 29 120 0
1 -29 -120 0
1 8 82 0
1 -8 -82 0
1 80 118 0
1 -80 -118 0
1 104 3 0
1 -104 -3 0
1 104 117 0
1 -104 -117 0
1 88 82 0
1 -88 -82 0
1 47 69 0
1 -47 -69 0
1 64 60 0
1 -64 -60 0
1 10 78 0
1 -10 -78 0
1 125 29 0
1 -125 -29 0
1 20 122 0
1 -20 -122 0
1 10 80 0
1 -10 -80 0
1 97 40 0
1 -97 -40 0
1 123 11 0
1 -123 -11 0
1 71 38 0
1 -71 -38 0
1 117 118 0
1 -117 -118 0
1 16 136 0
1 -16 -136 0
1 69 5 0
1 -69 -5 0
1 105 95 0
1 -105 -95 0
1 88 3 0
1 -88 -3 0
1 33 98 0
1 -33 -98 0
1 63 122 0
1 -63 -122 0
1 48 83 0
1 -48 -83 0
1 10 30 0
1 -10 -30 0
1 51 43 0
1 -51 -43 0
1 140 135 0
1 -140 -135 0
1 68 53 0
1 -68 -53 0
1 133 117 0
1 -133 -117 0
1 57 85 0
1 -57 -85 0
1 38 34 0
1 -38 -34 0
1 48 119 0
1 -48 -119 0
1 57 116 0
1 -57 -116 0
1 127 95 0
1 -127 -95 0
1 33 80 0
1 -33 -80 0
1 98 111 0
1 -98 -111 0
1 13 118 0
1 -13 -118 0
1 16 13 0
1 -16 -13 0
1 129 46 0
1 -129 -46 0
1 75 42 0
1 -75 -42 0
1 33 71 0
1 -33 -71 0
1 134 24 0
1 -134 -24 0
1 100 22 0
1 -100 -22 0
1 100 92 0
1 -100 -92 0
1 74 120 0
1 -74 -120 0
1 58 78 0
1 -58 -78 0
1 44 79 0
1 -44 -79 0
1 65 42 0
1 -65 -42 0
1 9 102 0
1 -9 -102 0
1 62 67 0
1 -62 -67 0
1 64 76 0
1 -64 -76 0
1 13 112 0
1 -13 -112 0
1 119 27 0
1 -119 -27 0
1 62 131 0
1 -62 -131 0
1 37 59 0
1 -37 -59 0
1 15 3 0
1 -15 -3 0
1 54 131 0
1 -54 -131 0
1 76 130 0
1 -76 -130 0
1 41 99 0
1 -41 -99 0
1 4 109 0
1 -4 -109 0
1 36 77 0
1 -36 -77 0
1 65 10 0
1 -65 -10 0
1 68 132 0
1 -68 -132 0
1 97 69 0
1 -97 -69 0
1 49 32 0
1 -49 -32 0
1 21 107 0
1 -21 -107 0
1 113 89 0
1 -113 -89 0
1 105 82 0
1 -105 -82 0
1 65 82 0
1 -65 -82 0
1 113 25 0
1 -113 -25 0
1 86 25 0
1 -86 -25 0
1 31 129 0
1 -31 -129 0
1 91 115 0
1 -91 -115 0
1 20 99 0
1 -20 -99 0
1 47 2 0
1 -47 -2 0
1 1 95 0
1 -1 -95 0
1 24 46 0
1 -24 -46 0
1 26 86 0
1 -26 -86 0
1 44 50 0
1 -44 -50 0
1 31 83 0
1 -31 -83 0
1 9 39 0
1 -9 -39 0
1 126 90 0
1 -126 -90 0
1 15 69 0
1 -15 -69 0
1 56 61 0
1 -56 -61 0
1 64 26 0
1 -64 -26 0
1 16 67 0
1 -16 -67 0
1 63 25 0
1 -63 -25 0
1 53 117 0
1 -53 -117 0
1 20 98 0
1 -20 -98 0
1 106 29 0
1 -106 -29 0
1 32 57 0
1 -32 -57 0
1 139 25 0
1 -139 -25 0
1 70 46 0
1 -70 -46 0
1 70 43 0
1 -70 -43 0
1 61 104 0
1 -61 -104 0
1 87 37 0
1 -87 -37 0
1 52 86 0
1 -52 -86 0
1 52 112 0
1 -52 -112 0
1 116 132 0
1 -116 -132 0
1 97 115 0
1 -97 -115 0
1 36 101 0
1 -36 -101 0
1 138 61 0
1 -138 -61 0
1 12 90 0
1 -12 -90 0
1 61 93 0
1 -61 -93 0
1 97 73 0
1 -97 -73 0
1 9 96 0
1 -9 -96 0
1 110 51 0
1 -110 -51 0
1 4 24 0
1 -4 -24 0
1 92 60 0
1 -92 -60 0
1 94 108 0
1 -94 -108 0
1 125 38 0
1 -125 -38 0
1 48 27 0
1 -48 -27 0
1 49 69 0
1 -49 -69 0
1 106 11 0
1 -106 -11 0
1 126 20 0
1 -126 -20 0
1 46 11 0
1 -46 -11 0
1 84 38 0
1 -84 -38 0
1 136 14 0
1 -136 -14 0
1 113 116 0
1 -113 -116 0
1 109 50 0
1 -109 -50 0
1 49 90 0
1 -49 -90 0
1 93 91 0
1 -93 -91 0
1 9 59 0
1 -9 -59 0
1 107 71 0
1 -107 -71 0
1 36 122 0
1 -36 -122 0
1 53 13 0
1 -53 -13 0
1 55 126 0
1 -55 -126 0
1 133 22 0
1 -133 -22 0
1 65 44 0
1 -65 -44 0
1 129 59 0
1 -129 -59 0
1 136 39 0
1 -136 -39 0
1 55 52 0
1 -55 -52 0
1 53 51 0
1 -53 -51 0
1 19 61 0
1 -19 -61 0
1 15 24 0
1 -15 -24 0
1 32 127 0
1 -32 -127 0
1 19 78 0
1 -19 -78 0
1 116 59 0
1 -116 -59 0
1 47 1 0
1 -47 -1 0
1 61 82 0
1 -61 -82 0
1 122 98 0
1 -122 -98 0
1 36 120 0
1 -36 -120 0
1 90 124 0
1 -90 -124 0
1 25 119 0
1 -25 -119 0
1 2 51 0
1 -2 -51 0
1 31 139 0
1 -31 -139 0
1 94 53 0
1 -94 -53 0
1 54 107 0
1 -54 -107 0
1 51 135 0
1 -51 -135 0
1 22 118 0
1 -22 -118 0
1 61 115 0
1 -61 -115 0
1 87 115 0
1 -87 -115 0
1 121 29 0
1 -121 -29 0
1 140 85 0
1 -140 -85 0
1 62 88 0
1 -62 -88 0
1 30 59 0
1 -30 -59 0
1 78 122 0
1 -78 -122 0
1 75 81 0
1 -75 -81 0
1 52 49 0
1 -52 -49 0
1 108 79 0
1 -108 -79 0
1 126 95 0
1 -126 -95 0
1 80 73 0
1 -80 -73 0
1 10 47 0
1 -10 -47 0
1 4 124 0
1 -4 -124 0
1 132 89 0
1 -132 -89 0
1 63 95 0
1 -63 -95 0
1 7 65 0
1 -7 -65 0
1 15 135 0
1 -15 -135 0
1 70 121 0
1 -70 -121 0
1 123 98 0
1 -123 -98 0
1 63 12 0
1 -63 -12 0
1 18 6 0
1 -18 -6 0
1 16 115 0
1 -16 -115 0
1 77 8 0
1 -77 -8 0
1 105 101 0
1 -105 -101 0
1 83 107 0
1 -83 -107 0
1 26 74 0
1 -26 -74 0
1 35 47 0
1 -35 -47 0
1 69 101 0
1 -69 -101 0
1 45 95 0
1 -45 -95 0
1 89 91 0
1 -89 -91 0
1 87 71 0
1 -87 -71 0
1 131 78 0
1 -131 -78 0
1 119 118 0
1 -119 -118 0
1 42 98 0
1 -42 -98 0
1 79 73 0
1 -79 -73 0
1 107 51 0
1 -107 -51 0
1 55 44 0
1 -55 -44 0
1 36 83 0
1 -36 -83 0
1 131 80 0
1 -131 -80 0
1 38 82 0
1 -38 -82 0
1 131 74 0
1 -131 -74 0
1 68 8 0
1 -68 -8 0
1 64 14 0
1 -64 -14 0
1 16 130 0
1 -16 -130 0
1 20 40 0
1 -20 -40 0
1 93 85 0
1 -93 -85 0
1 75 113 0
1 -75 -113 0
1 63 79 0
1 -63 -79 0
1 7 106 0
1 -7 -106 0
1 137 89 0
1 -137 -89 0
1 100 119 0
1 -100 -119 0
1 123 80 0
1 -123 -80 0
1 100 65 0
1 -100 -65 0
1 16 79 0
1 -16 -79 0
1 31 39 0
1 -31 -39 0
1 32 15 0
1 -32 -15 0
1 19 42 0
1 -19 -42 0
1 136 53 0
1 -136 -53 0
1 10 11 0
1 -10 -11 0
1 64 43 0
1 -64 -43 0
1 126 44 0
1 -126 -44 0
1 22 102 0
1 -22 -102 0
1 30 28 0
1 -30 -28 0
1 19 131 0
1 -19 -131 0
1 19 58 0
1 -19 -58 0
1 56 38 0
1 -56 -38 0
1 32 95 0
1 -32 -95 0
1 99 38 0
1 -99 -38 0
1 73 85 0
1 -73 -85 0
1 63 31 0
1 -63 -31 0
1 35 28 0
1 -35 -28 0
1 129 3 0
1 -129 -3 0
1 125 58 0
1 -125 -58 0
1 31 102 0
1 -31 -102 0
1 110 113 0
1 -110 -113 0
1 137 120 0
1 -137 -120 0
1 125 64 0
1 -125 -64 0
1 68 104 0
1 -68 -104 0
1 26 105 0
1 -26 -105 0
1 110 69 0
1 -110 -69 0
1 32 30 0
1 -32 -30 0
1 58 97 0
1 -58 -97 0
1 86 91 0
1 -86 -91 0
1 100 79 0
1 -100 -79 0
1 70 38 0
1 -70 -38 0
1 81 109 0
1 -81 -109 0
1 42 24 0
1 -42 -24 0
1 65 66 0
1 -65 -66 0
1 58 67 0
1 -58 -67 0
1 65 72 0
1 -65 -72 0
1 94 84 0
1 -94 -84 0
1 121 33 0
1 -121 -33 0
1 131 51 0
1 -131 -51 0
1 90 73 0
1 -90 -73 0
1 20 71 0
1 -20 -71 0
1 58 84 0
1 -58 -84 0
1 41 122 0
1 -41 -122 0
1 12 118 0
1 -12 -118 0
1 127 111 0
1 -127 -111 0
1 16 90 0
1 -16 -90 0
1 30 115 0
1 -30 -115 0
1 56 32 0
1 -56 -32 0
1 94 126 0
1 -94 -126 0
1 41 60 0
1 -41 -60 0
1 54 53 0
1 -54 -53 0
1 26 84 0
1 -26 -84 0
1 20 43 0
1 -20 -43 0
1 91 82 0
1 -91 -82 0
1 121 127 0
1 -121 -127 0
1 105 132 0
1 -105 -132 0
1 41 86 0
1 -41 -86 0
1 10 101 0
1 -10 -101 0
1 40 119 0
1 -40 -119 0
1 117 115 0
1 -117 -115 0
1 133 13 0
1 -133 -13 0
1 49 20 0
1 -49 -20 0
1 9 136 0
1 -9 -136 0
1 16 59 0
1 -16 -59 0
1 84 39 0
1 -84 -39 0
1 15 122 0
1 -15 -122 0
1 45 76 0
1 -45 -76 0
1 30 69 0
1 -30 -69 0
1 53 14 0
1 -53 -14 0
1 51 23 0
1 -51 -23 0
1 56 96 0
1 -56 -96 0
1 21 44 0
1 -21 -44 0
1 139 8 0
1 -139 -8 0
1 123 13 0
1 -123 -13 0
1 119 43 0
1 -119 -43 0
1 55 73 0
1 -55 -73 0
1 18 32 0
1 -18 -32 0
1 114 69 0
1 -114 -69 0
1 139 13 0
1 -139 -13 0
1 125 33 0
1 -125 -33 0
1 121 114 0
1 -121 -114 0
1 31 112 0
1 -31 -112 0
